set VV := 0 1 2 3 4 5 6 7 8 9 10 11 12 13 14 15 16 17 18 19 20 21 22 23 24 25 26 27 28 29 30 31 32 33 ;
set VS := 0 1 2 3 4 5 6 7 8 9 10 11 12 13 14 15 16 17 18 19 20 21 22 23 24 25 26 27 28 29 30 31 32 33 34 35 36 37 38 39 40 41 42 43 44 45 46 47 48 49 50 51 52 53 54 55 56 57 58 59 60 61 62 63 64 65 66 67 68 69 70 71 ;
param cv := 
0 22
1 18
2 22
3 20
4 21
5 16
6 18
7 24
8 20
9 18
10 15
11 14
12 25
13 22
14 13
15 11
16 25
17 18
18 14
19 15
20 24
21 10
22 20
23 25
24 19
25 23
26 14
27 19
28 18
29 20
30 12
31 16
32 25
33 22
;
param cs := 
0 21
1 39
2 35
3 37
4 38
5 36
6 24
7 33
8 20
9 37
10 37
11 22
12 32
13 23
14 40
15 23
16 23
17 24
18 21
19 24
20 36
21 35
22 31
23 29
24 20
25 33
26 36
27 38
28 20
29 20
30 29
31 34
32 34
33 39
34 36
35 28
36 36
37 31
38 20
39 27
40 32
41 32
42 31
43 39
44 39
45 25
46 20
47 29
48 32
49 30
50 35
51 29
52 28
53 31
54 23
55 25
56 20
57 31
58 32
59 31
60 25
61 37
62 26
63 28
64 26
65 21
66 39
67 36
68 31
69 36
70 29
71 29
;
param bv:	 0 1 2 3 4 5 6 7 8 9 10 11 12 13 14 15 16 17 18 19 20 21 22 23 24 25 26 27 28 29 30 31 32 33 := 
		0 0 0 0 0 0 0 0 0 0 0 0 0 0 0 0 0 0 0 0 0 0 0 14 0 0 0 0 0 0 0 0 0 0 0 
		1 0 0 0 0 0 24 0 0 0 0 12 15 0 0 0 12 0 0 0 0 0 21 0 25 16 0 0 18 0 0 0 0 0 0 
		2 0 0 0 0 0 0 0 0 0 0 0 0 0 0 0 0 0 0 0 20 0 0 0 0 0 0 22 0 0 0 0 0 0 0 
		3 0 0 0 0 0 0 0 0 0 0 0 0 0 0 20 0 0 0 0 0 0 0 0 0 0 0 0 0 0 0 0 0 0 0 
		4 0 0 0 0 0 0 0 0 0 0 0 0 0 0 0 0 0 0 0 0 0 0 0 0 24 0 0 0 0 22 15 0 0 0 
		5 0 0 0 0 0 0 0 0 0 0 0 0 0 0 0 0 0 0 0 0 0 0 0 0 0 0 0 0 0 0 0 25 15 0 
		6 0 0 0 0 0 0 0 13 0 0 0 14 0 0 22 21 0 0 0 23 0 0 0 0 0 0 0 0 0 0 0 0 24 0 
		7 0 0 0 0 0 0 0 0 0 0 19 0 0 0 0 0 0 0 16 18 0 0 0 0 0 0 0 0 0 12 0 0 0 13 
		8 0 0 0 0 0 0 0 0 0 0 0 0 0 0 0 0 0 0 0 0 0 0 0 0 0 0 0 13 0 0 0 0 17 0 
		9 0 0 0 0 0 0 0 0 0 0 0 25 0 13 0 0 0 0 0 0 0 0 0 19 0 0 0 0 0 0 0 0 22 0 
		10 0 0 0 0 0 0 0 0 0 0 0 0 24 0 0 0 0 0 0 0 0 0 0 0 0 0 16 0 0 0 0 0 0 0 
		11 0 0 0 0 0 0 0 0 0 0 0 0 0 10 17 0 0 0 0 0 0 0 0 0 0 0 0 0 0 0 22 0 0 0 
		12 0 0 0 0 0 0 0 0 0 0 0 0 0 0 0 0 0 0 0 0 0 0 0 0 0 0 0 0 15 0 0 0 0 0 
		13 0 0 0 0 0 0 0 0 0 0 0 0 0 0 19 0 0 0 0 0 0 0 0 0 0 0 0 0 0 0 0 0 0 0 
		14 0 0 0 0 0 0 0 0 0 0 0 0 0 0 0 0 0 0 0 0 0 0 0 20 19 0 0 15 19 0 0 0 0 0 
		15 0 0 0 0 0 0 0 0 0 0 0 0 0 0 0 0 0 0 0 0 0 0 0 0 0 0 0 0 0 0 0 0 20 0 
		16 0 0 0 0 0 0 0 0 0 0 0 0 0 0 0 0 0 0 0 0 0 0 0 0 0 12 0 0 0 0 0 0 0 0 
		17 0 0 0 0 0 0 0 0 0 0 0 0 0 0 0 0 0 0 0 0 0 0 0 0 0 0 0 0 0 16 0 0 0 0 
		18 0 0 0 0 0 0 0 0 0 0 0 0 0 0 0 0 0 0 0 0 0 0 0 0 0 0 0 0 0 0 20 22 0 0 
		19 0 0 0 0 0 0 0 0 0 0 0 0 0 0 0 0 0 0 0 0 0 0 0 0 20 0 0 0 0 0 0 0 0 0 
		20 0 0 0 0 0 0 0 0 0 0 0 0 0 0 0 0 0 0 0 0 0 0 0 0 0 15 0 0 0 0 0 0 0 0 
		21 0 0 0 0 0 0 0 0 0 0 0 0 0 0 0 0 0 0 0 0 0 0 0 0 14 0 0 0 0 0 0 0 0 0 
		22 0 0 0 0 0 0 0 0 0 0 0 0 0 0 0 0 0 0 0 0 0 0 0 0 21 23 0 0 0 0 0 0 0 0 
		23 0 0 0 0 0 0 0 0 0 0 0 0 0 0 0 0 0 0 0 0 0 0 0 0 0 0 0 0 0 0 0 0 0 0 
		24 0 0 0 0 0 0 0 0 0 0 0 0 0 0 0 0 0 0 0 0 0 0 0 0 0 0 0 0 0 0 0 0 25 0 
		25 0 0 0 0 0 0 0 0 0 0 0 0 0 0 0 0 0 0 0 0 0 0 0 0 0 0 21 11 18 0 0 0 0 0 
		26 0 0 0 0 0 0 0 0 0 0 0 0 0 0 0 0 0 0 0 0 0 0 0 0 0 0 0 0 0 0 0 0 0 0 
		27 0 0 0 0 0 0 0 0 0 0 0 0 0 0 0 0 0 0 0 0 0 0 0 0 0 0 0 0 0 0 0 0 0 0 
		28 0 0 0 0 0 0 0 0 0 0 0 0 0 0 0 0 0 0 0 0 0 0 0 0 0 0 0 0 0 0 0 0 0 0 
		29 0 0 0 0 0 0 0 0 0 0 0 0 0 0 0 0 0 0 0 0 0 0 0 0 0 0 0 0 0 0 0 0 0 0 
		30 0 0 0 0 0 0 0 0 0 0 0 0 0 0 0 0 0 0 0 0 0 0 0 0 0 0 0 0 0 0 0 0 0 0 
		31 0 0 0 0 0 0 0 0 0 0 0 0 0 0 0 0 0 0 0 0 0 0 0 0 0 0 0 0 0 0 0 0 0 0 
		32 0 0 0 0 0 0 0 0 0 0 0 0 0 0 0 0 0 0 0 0 0 0 0 0 0 0 0 0 0 0 0 0 0 0 
		33 0 0 0 0 0 0 0 0 0 0 0 0 0 0 0 0 0 0 0 0 0 0 0 0 0 0 0 0 0 0 0 0 0 0 
;
param bs:	 0 1 2 3 4 5 6 7 8 9 10 11 12 13 14 15 16 17 18 19 20 21 22 23 24 25 26 27 28 29 30 31 32 33 34 35 36 37 38 39 40 41 42 43 44 45 46 47 48 49 50 51 52 53 54 55 56 57 58 59 60 61 62 63 64 65 66 67 68 69 70 71 := 
		0 0 0 0 0 0 0 0 0 0 0 40 0 0 0 0 0 0 0 0 0 0 0 0 0 0 0 0 0 0 0 0 0 0 0 0 36 0 0 0 0 0 0 0 0 0 0 24 0 0 21 0 0 0 0 0 0 0 0 25 0 0 0 0 0 0 0 0 0 0 0 0 0 
		1 0 0 0 0 0 0 0 0 0 32 0 0 0 0 0 0 0 0 0 0 0 0 0 36 0 0 0 0 0 0 0 0 0 0 31 0 0 30 0 0 0 0 0 0 0 0 0 0 0 0 0 0 0 0 0 0 25 0 0 0 0 0 0 0 22 0 0 0 0 40 0 0 
		2 0 0 0 0 0 34 0 0 0 0 0 0 0 0 0 0 0 36 0 40 0 0 0 0 0 0 0 0 0 0 0 0 0 0 0 0 27 0 0 0 0 0 0 0 0 0 26 0 38 0 0 0 26 0 0 0 0 0 0 0 0 0 0 0 0 0 0 0 0 0 0 0 
		3 0 0 0 0 0 32 0 0 0 40 0 0 0 0 0 28 0 0 0 20 0 0 20 29 33 0 25 0 0 0 0 0 0 0 0 0 30 0 0 0 31 0 0 0 0 0 0 0 0 0 0 0 0 0 0 0 0 0 38 0 0 24 0 0 35 0 0 0 0 34 0 0 
		4 0 0 0 0 0 0 0 0 0 0 0 0 0 0 0 0 20 29 20 0 0 31 0 37 0 0 0 0 0 0 0 0 0 0 0 26 0 0 0 0 0 35 25 0 0 0 0 0 0 0 0 0 25 0 0 0 0 0 0 40 0 0 0 0 20 0 22 0 0 0 0 0 
		5 0 0 34 32 0 0 0 25 0 0 0 27 0 0 0 26 0 0 40 0 32 25 0 0 0 0 0 0 29 0 0 0 0 23 0 0 0 0 32 20 0 0 0 0 30 0 0 0 0 0 0 0 0 0 0 0 0 0 30 0 0 0 0 0 0 0 0 0 0 0 24 0 
		6 0 0 0 0 0 0 0 33 0 0 0 0 0 0 0 0 0 30 0 0 0 0 0 0 0 0 0 0 0 31 0 0 0 0 0 0 0 0 0 32 0 0 0 37 0 0 0 33 0 0 0 31 0 25 0 37 0 0 0 0 0 0 28 33 0 0 0 21 0 0 0 0 
		7 0 0 0 0 0 25 33 0 0 0 0 0 0 0 0 0 0 0 0 0 0 0 0 0 0 34 0 0 0 0 0 0 0 0 0 27 0 0 0 0 0 0 0 0 0 0 0 0 0 0 0 36 0 40 0 0 0 0 0 0 0 0 0 28 0 0 0 0 0 0 0 39 
		8 0 0 0 0 0 0 0 0 0 0 0 0 0 0 0 0 0 0 0 0 0 0 24 0 0 0 0 0 0 0 0 0 0 0 0 0 0 0 0 38 0 0 0 0 0 0 0 0 31 0 0 0 0 0 0 0 0 0 0 0 0 0 0 0 0 0 0 0 0 0 0 0 
		9 0 32 0 40 0 0 0 0 0 0 0 0 0 0 0 0 0 0 0 0 0 0 0 0 34 0 0 0 0 0 0 0 0 0 0 0 20 0 0 0 0 0 0 0 0 0 0 0 0 0 0 0 0 0 0 0 0 0 0 0 0 0 0 0 24 0 0 0 0 0 0 0 
		10 40 0 0 0 0 0 0 0 0 0 0 0 0 0 0 0 0 0 0 0 0 0 0 0 0 0 0 0 0 0 0 0 0 0 0 0 0 0 0 0 0 35 23 0 0 0 0 26 0 0 0 0 22 0 0 0 0 0 0 0 0 0 27 0 0 0 0 0 0 0 0 0 
		11 0 0 0 0 0 27 0 0 0 0 0 0 0 0 0 0 0 21 0 0 0 0 0 0 0 0 0 0 0 0 0 0 0 0 0 0 0 0 0 29 0 0 0 0 24 0 0 0 0 0 0 0 0 0 0 0 0 0 0 0 0 0 0 0 0 0 0 0 0 0 0 0 
		12 0 0 0 0 0 0 0 0 0 0 0 0 0 0 0 0 0 0 0 0 0 0 0 0 0 0 0 0 0 0 0 32 0 0 0 0 0 0 0 0 0 0 0 0 0 0 31 0 0 0 0 0 0 0 0 0 0 0 0 0 31 0 0 0 0 0 0 0 0 0 0 0 
		13 0 0 0 0 0 0 0 0 0 0 0 0 0 0 0 0 0 35 0 0 0 0 0 0 0 0 0 0 0 0 0 0 0 0 0 0 0 0 32 0 0 0 0 0 0 0 0 0 0 0 0 0 0 0 0 0 0 0 0 0 0 0 0 0 40 0 0 0 0 0 40 0 
		14 0 0 0 0 0 0 0 0 0 0 0 0 0 0 0 0 0 0 0 0 0 0 0 0 0 0 0 0 0 0 0 0 0 0 0 40 0 0 25 0 40 0 0 0 0 0 0 0 0 0 0 0 0 0 0 0 0 0 35 0 0 0 0 0 0 0 0 0 0 35 0 0 
		15 0 0 0 28 0 26 0 0 0 0 0 0 0 0 0 0 0 0 0 0 0 0 0 0 0 27 0 38 28 0 24 0 0 24 0 0 0 0 0 0 35 0 0 0 0 0 0 0 0 0 0 0 0 0 34 0 0 0 0 0 0 0 0 0 22 0 0 0 26 0 0 0 
		16 0 0 0 0 20 0 0 0 0 0 0 0 0 0 0 0 0 0 30 0 29 0 0 23 0 36 30 0 0 0 30 0 0 0 0 0 0 39 0 0 0 0 0 0 0 0 33 0 0 24 0 0 20 0 0 0 0 0 0 0 28 0 0 0 0 0 0 0 0 0 0 0 
		17 0 0 36 0 29 0 30 0 0 0 0 21 0 35 0 0 0 0 0 0 0 0 0 0 26 0 36 0 0 24 0 0 0 0 0 0 0 0 0 0 0 0 33 0 0 0 0 0 0 0 0 0 36 0 0 0 0 0 0 0 23 0 0 0 33 0 27 0 0 30 22 0 
		18 0 0 0 0 20 40 0 0 0 0 0 0 0 0 0 0 30 0 0 0 36 0 0 0 0 0 0 0 31 0 33 0 0 0 0 0 0 0 0 0 0 0 0 0 0 0 22 28 21 0 0 0 25 0 0 0 0 0 0 0 26 0 0 0 0 0 38 0 0 0 0 40 
		19 0 0 40 20 0 0 0 0 0 0 0 0 0 0 0 0 0 0 0 0 0 0 0 0 0 0 0 0 0 0 34 0 0 0 0 0 0 30 0 0 23 0 0 0 0 0 0 0 0 0 0 0 21 0 0 0 0 0 34 0 0 0 0 0 0 0 40 0 40 0 0 0 
		20 0 0 0 0 0 32 0 0 0 0 0 0 0 0 0 0 29 0 36 0 0 0 0 0 0 0 0 0 0 0 32 0 28 0 0 0 0 0 0 0 0 0 0 0 0 0 0 0 0 0 0 0 0 0 0 0 0 0 0 0 0 0 0 0 0 0 0 0 0 0 0 0 
		21 0 0 0 0 31 25 0 0 0 0 0 0 0 0 0 0 0 0 0 0 0 0 0 0 0 0 32 37 0 0 0 0 0 0 0 21 0 27 36 0 0 0 0 0 0 0 0 0 0 0 0 0 36 0 0 0 36 0 0 24 34 0 0 0 0 0 0 22 0 0 0 21 
		22 0 0 0 20 0 0 0 0 24 0 0 0 0 0 0 0 0 0 0 0 0 0 0 22 0 0 38 0 0 34 40 0 25 0 0 0 0 0 0 0 0 0 0 0 0 0 0 0 0 0 0 0 0 23 0 0 0 0 0 0 0 0 0 0 0 0 37 0 37 0 0 32 
		23 0 36 0 29 37 0 0 0 0 0 0 0 0 0 0 0 23 0 0 0 0 0 22 0 0 0 0 0 0 0 23 0 0 0 0 0 0 0 0 0 0 0 0 0 0 0 36 0 0 0 0 0 28 0 0 0 0 0 0 0 0 0 0 0 0 0 30 0 0 0 0 0 
		24 0 0 0 33 0 0 0 0 0 34 0 0 0 0 0 0 0 26 0 0 0 0 0 0 0 0 0 0 0 0 0 0 0 0 0 0 0 0 0 0 0 0 0 0 0 0 0 0 0 0 0 0 0 0 23 0 0 0 0 0 0 0 0 0 0 0 0 0 0 0 0 0 
		25 0 0 0 0 0 0 0 34 0 0 0 0 0 0 0 27 36 0 0 0 0 0 0 0 0 0 39 0 0 0 0 0 0 0 29 39 0 0 0 0 0 0 0 0 0 0 0 0 0 0 0 0 0 20 0 27 0 0 0 0 0 0 0 0 0 0 0 0 0 0 0 0 
		26 0 0 0 25 0 0 0 0 0 0 0 0 0 0 0 0 30 36 0 0 0 32 38 0 0 39 0 0 0 0 0 0 0 0 0 0 0 0 0 0 0 0 40 0 0 0 0 0 0 37 0 0 0 26 0 0 0 0 0 38 0 0 0 35 0 0 0 0 0 0 0 0 
		27 0 0 0 0 0 0 0 0 0 0 0 0 0 0 0 38 0 0 0 0 0 37 0 0 0 0 0 0 0 0 0 0 0 0 0 29 0 0 0 0 0 0 0 0 0 0 0 0 0 0 0 0 0 0 0 0 33 0 29 0 0 0 0 0 37 0 0 0 30 0 0 0 
		28 0 0 0 0 0 29 0 0 0 0 0 0 0 0 0 28 0 0 31 0 0 0 0 0 0 0 0 0 0 0 0 0 0 0 0 26 0 0 0 0 0 27 0 0 0 21 0 25 0 0 0 0 0 21 0 0 0 0 0 0 0 0 0 0 0 0 0 0 0 0 0 0 
		29 0 0 0 0 0 0 31 0 0 0 0 0 0 0 0 0 0 24 0 0 0 0 34 0 0 0 0 0 0 0 0 0 26 0 0 0 0 0 0 0 0 26 0 27 0 0 0 31 0 0 0 20 27 25 0 0 0 0 0 37 0 36 0 0 0 30 0 0 0 0 0 24 
		30 0 0 0 0 0 0 0 0 0 0 0 0 0 0 0 24 30 0 33 34 32 0 40 23 0 0 0 0 0 0 0 0 0 0 0 0 0 0 0 0 0 0 0 0 0 0 0 0 0 0 0 0 0 0 0 0 0 0 0 0 40 0 0 0 0 0 0 0 0 0 0 0 
		31 0 0 0 0 0 0 0 0 0 0 0 0 32 0 0 0 0 0 0 0 0 0 0 0 0 0 0 0 0 0 0 0 0 0 0 0 0 0 0 0 0 0 0 36 0 0 0 0 0 0 0 0 0 0 28 0 0 0 0 34 0 0 0 0 24 0 0 21 0 0 0 0 
		32 0 0 0 0 0 0 0 0 0 0 0 0 0 0 0 0 0 0 0 0 28 0 25 0 0 0 0 0 0 26 0 0 0 20 0 0 25 0 0 29 0 0 25 0 0 0 0 31 28 0 0 0 0 0 0 0 27 0 0 0 0 0 0 0 0 0 0 0 0 0 0 0 
		33 0 0 0 0 0 23 0 0 0 0 0 0 0 0 0 24 0 0 0 0 0 0 0 0 0 0 0 0 0 0 0 0 20 0 0 0 0 0 0 0 20 0 0 0 0 0 0 24 0 0 0 0 0 0 0 0 0 0 23 36 0 0 0 0 0 0 0 0 0 0 0 0 
		34 0 31 0 0 0 0 0 0 0 0 0 0 0 0 0 0 0 0 0 0 0 0 0 0 0 29 0 0 0 0 0 0 0 0 0 0 20 0 0 0 0 0 0 0 0 0 0 0 0 0 0 0 0 0 0 0 38 0 0 0 20 0 0 0 0 0 23 0 0 32 0 0 
		35 36 0 0 0 26 0 0 27 0 0 0 0 0 0 40 0 0 0 0 0 0 21 0 0 0 39 0 29 26 0 0 0 0 0 0 0 0 0 0 0 0 0 40 0 0 0 0 38 0 0 0 0 0 0 0 0 0 0 40 25 0 0 0 0 0 0 26 0 0 0 0 0 
		36 0 0 27 30 0 0 0 0 0 20 0 0 0 0 0 0 0 0 0 0 0 0 0 0 0 0 0 0 0 0 0 0 25 0 20 0 0 0 0 0 0 0 0 0 34 0 0 0 38 0 0 0 0 0 0 0 0 0 0 0 0 0 0 0 0 30 0 0 0 0 0 0 
		37 0 30 0 0 0 0 0 0 0 0 0 0 0 0 0 0 39 0 0 30 0 27 0 0 0 0 0 0 0 0 0 0 0 0 0 0 0 0 0 0 0 0 0 0 0 0 28 0 0 0 0 20 0 0 0 0 0 0 0 37 0 0 0 0 0 0 0 0 0 0 0 0 
		38 0 0 0 0 0 32 0 0 0 0 0 0 0 32 25 0 0 0 0 0 0 36 0 0 0 0 0 0 0 0 0 0 0 0 0 0 0 0 0 0 34 0 0 0 0 0 0 0 0 0 0 0 27 0 0 0 29 0 35 0 0 0 0 36 27 0 0 0 28 0 0 0 
		39 0 0 0 0 0 20 32 0 38 0 0 29 0 0 0 0 0 0 0 0 0 0 0 0 0 0 0 0 0 0 0 0 29 0 0 0 0 0 0 0 0 0 0 0 0 0 38 25 0 0 36 0 0 0 0 0 0 0 0 40 0 0 0 0 30 0 30 0 0 0 0 0 
		40 0 0 0 31 0 0 0 0 0 0 0 0 0 0 40 35 0 0 0 23 0 0 0 0 0 0 0 0 0 0 0 0 0 20 0 0 0 0 34 0 0 0 0 0 0 0 0 0 0 0 0 0 0 0 34 0 0 0 0 33 0 0 0 0 0 0 27 0 0 0 0 26 
		41 0 0 0 0 35 0 0 0 0 0 35 0 0 0 0 0 0 0 0 0 0 0 0 0 0 0 0 0 27 26 0 0 0 0 0 0 0 0 0 0 0 0 28 0 0 0 0 0 0 21 0 0 0 0 0 0 0 0 0 0 0 0 0 0 0 0 0 0 0 0 0 0 
		42 0 0 0 0 25 0 0 0 0 0 23 0 0 0 0 0 0 33 0 0 0 0 0 0 0 0 40 0 0 0 0 0 25 0 0 40 0 0 0 0 0 28 0 0 0 0 0 0 0 0 0 0 0 20 0 0 0 0 0 0 36 0 0 39 0 22 0 0 0 0 33 0 
		43 0 0 0 0 0 0 37 0 0 0 0 0 0 0 0 0 0 0 0 0 0 0 0 0 0 0 0 0 0 27 0 36 0 0 0 0 0 0 0 0 0 0 0 0 0 0 0 0 0 33 0 0 27 20 0 0 0 29 0 0 0 0 28 0 0 0 0 0 0 0 0 0 
		44 0 0 0 0 0 30 0 0 0 0 0 24 0 0 0 0 0 0 0 0 0 0 0 0 0 0 0 0 0 0 0 0 0 0 0 0 34 0 0 0 0 0 0 0 0 0 0 0 0 0 0 0 0 0 0 0 0 0 0 0 0 0 0 0 0 0 0 0 0 0 0 0 
		45 0 0 0 0 0 0 0 0 0 0 0 0 0 0 0 0 0 0 0 0 0 0 0 0 0 0 0 0 21 0 0 0 0 0 0 0 0 0 0 0 0 0 0 0 0 0 0 0 0 0 0 0 0 0 0 0 0 0 0 0 0 0 0 0 0 40 0 40 0 0 0 0 
		46 24 0 26 0 0 0 0 0 0 0 0 0 31 0 0 0 33 0 22 0 0 0 0 36 0 0 0 0 0 0 0 0 0 0 0 0 0 28 0 38 0 0 0 0 0 0 0 40 0 0 0 0 0 0 0 0 0 0 0 0 0 0 0 0 0 0 25 0 0 20 0 0 
		47 0 0 0 0 0 0 33 0 0 0 26 0 0 0 0 0 0 0 28 0 0 0 0 0 0 0 0 0 25 31 0 0 31 24 0 38 0 0 0 25 0 0 0 0 0 0 40 0 0 0 0 22 0 0 0 0 27 0 0 0 0 0 0 0 0 0 0 0 0 0 0 0 
		48 0 0 38 0 0 0 0 0 31 0 0 0 0 0 0 0 0 0 21 0 0 0 0 0 0 0 0 0 0 0 0 0 28 0 0 0 38 0 0 0 0 0 0 0 0 0 0 0 0 0 0 0 0 0 0 0 35 0 0 0 0 0 0 0 0 0 0 0 0 30 39 30 
		49 21 0 0 0 0 0 0 0 0 0 0 0 0 0 0 0 24 0 0 0 0 0 0 0 0 0 37 0 0 0 0 0 0 0 0 0 0 0 0 0 0 21 0 33 0 0 0 0 0 0 0 0 0 0 0 23 0 0 0 0 0 0 0 0 0 0 0 0 0 0 0 0 
		50 0 0 0 0 0 0 0 0 0 0 0 0 0 0 0 0 0 0 0 0 0 0 0 0 0 0 0 0 0 0 0 0 0 0 0 0 0 0 0 36 0 0 0 0 0 0 0 0 0 0 0 0 0 0 0 0 0 0 0 29 0 25 0 0 0 0 0 29 0 0 0 29 
		51 0 0 0 0 0 0 31 36 0 0 0 0 0 0 0 0 0 0 0 0 0 0 0 0 0 0 0 0 0 20 0 0 0 0 0 0 0 20 0 0 0 0 0 0 0 0 0 22 0 0 0 0 0 28 31 0 30 26 0 0 0 0 34 0 0 0 33 0 0 0 0 0 
		52 0 0 26 0 25 0 0 0 0 0 22 0 0 0 0 0 20 36 25 21 0 36 0 28 0 0 0 0 0 27 0 0 0 0 0 0 0 0 27 0 0 0 0 27 0 0 0 0 0 0 0 0 0 20 0 0 35 0 0 0 0 0 0 0 0 0 0 0 0 0 0 28 
		53 0 0 0 0 0 0 25 40 0 0 0 0 0 0 0 0 0 0 0 0 0 0 23 0 0 20 26 0 21 25 0 0 0 0 0 0 0 0 0 0 0 0 20 20 0 0 0 0 0 0 0 28 20 0 0 0 0 40 0 0 0 26 0 28 38 0 0 38 0 0 0 40 
		54 0 0 0 0 0 0 0 0 0 0 0 0 0 0 0 34 0 0 0 0 0 0 0 0 23 0 0 0 0 0 0 28 0 0 0 0 0 0 0 0 34 0 0 0 0 0 0 0 0 0 0 31 0 0 0 0 0 0 0 0 0 0 0 0 0 0 0 0 0 0 0 0 
		55 0 0 0 0 0 0 37 0 0 0 0 0 0 0 0 0 0 0 0 0 0 0 0 0 0 27 0 0 0 0 0 0 0 0 0 0 0 0 0 0 0 0 0 0 0 0 0 0 0 23 0 0 0 0 0 0 0 37 0 0 0 0 36 0 0 0 0 0 0 0 0 0 
		56 0 25 0 0 0 0 0 0 0 0 0 0 0 0 0 0 0 0 0 0 0 36 0 0 0 0 0 33 0 0 0 0 27 0 38 0 0 0 29 0 0 0 0 0 0 0 0 27 35 0 0 30 35 0 0 0 0 0 0 0 0 0 0 0 33 0 0 24 0 0 0 0 
		57 0 0 0 0 0 0 0 0 0 0 0 0 0 0 0 0 0 0 0 0 0 0 0 0 0 0 0 0 0 0 0 0 0 0 0 0 0 0 0 0 0 0 0 29 0 0 0 0 0 0 0 26 0 40 0 37 0 0 0 0 0 0 0 0 31 0 0 36 0 0 0 40 
		58 25 0 0 38 0 30 0 0 0 0 0 0 0 0 35 0 0 0 0 34 0 0 0 0 0 0 0 29 0 0 0 0 0 23 0 40 0 0 35 0 0 0 0 0 0 0 0 0 0 0 0 0 0 0 0 0 0 0 0 0 0 0 0 0 0 20 0 0 0 0 0 0 
		59 0 0 0 0 40 0 0 0 0 0 0 0 0 0 0 0 0 0 0 0 0 24 0 0 0 0 38 0 0 37 0 34 0 36 0 25 0 37 0 40 33 0 0 0 0 0 0 0 0 0 29 0 0 0 0 0 0 0 0 0 0 0 0 0 32 0 0 0 21 0 0 28 
		60 0 0 0 0 0 0 0 0 0 0 0 0 31 0 0 0 28 23 26 0 0 34 0 0 0 0 0 0 0 0 40 0 0 0 20 0 0 0 0 0 0 0 36 0 0 0 0 0 0 0 0 0 0 0 0 0 0 0 0 0 0 0 0 0 0 0 0 0 0 0 0 0 
		61 0 0 0 24 0 0 0 0 0 0 0 0 0 0 0 0 0 0 0 0 0 0 0 0 0 0 0 0 0 36 0 0 0 0 0 0 0 0 0 0 0 0 0 0 0 0 0 0 0 0 25 0 0 26 0 0 0 0 0 0 0 0 0 0 0 0 0 0 0 0 0 21 
		62 0 0 0 0 0 0 28 0 0 0 27 0 0 0 0 0 0 0 0 0 0 0 0 0 0 0 0 0 0 0 0 0 0 0 0 0 0 0 0 0 0 0 0 28 0 0 0 0 0 0 0 34 0 0 0 36 0 0 0 0 0 0 0 0 0 0 0 0 0 0 0 0 
		63 0 0 0 0 0 0 33 28 0 0 0 0 0 0 0 0 0 0 0 0 0 0 0 0 0 0 35 0 0 0 0 0 0 0 0 0 0 0 36 0 0 0 39 0 0 0 0 0 0 0 0 0 0 28 0 0 0 0 0 0 0 0 0 0 0 0 0 0 0 0 0 0 
		64 0 22 0 35 20 0 0 0 0 24 0 0 0 40 0 22 0 33 0 0 0 0 0 0 0 0 0 37 0 0 0 24 0 0 0 0 0 0 27 30 0 0 0 0 0 0 0 0 0 0 0 0 0 38 0 0 33 31 0 32 0 0 0 0 0 0 0 0 0 0 0 0 
		65 0 0 0 0 0 0 0 0 0 0 0 0 0 0 0 0 0 0 0 0 0 0 0 0 0 0 0 0 0 30 0 0 0 0 0 0 30 0 0 0 0 0 22 0 0 40 0 0 0 0 0 0 0 0 0 0 0 0 20 0 0 0 0 0 0 0 0 37 0 20 0 0 
		66 0 0 0 0 22 0 0 0 0 0 0 0 0 0 0 0 0 27 38 40 0 0 37 30 0 0 0 0 0 0 0 0 0 0 23 26 0 0 0 30 27 0 0 0 0 0 25 0 0 0 0 33 0 0 0 0 0 0 0 0 0 0 0 0 0 0 0 0 0 0 0 21 
		67 0 0 0 0 0 0 21 0 0 0 0 0 0 0 0 0 0 0 0 0 0 22 0 0 0 0 0 0 0 0 0 21 0 0 0 0 0 0 0 0 0 0 0 0 0 40 0 0 0 0 29 0 0 38 0 0 24 36 0 0 0 0 0 0 0 37 0 0 0 0 0 40 
		68 0 0 0 0 0 0 0 0 0 0 0 0 0 0 0 26 0 0 0 40 0 0 37 0 0 0 0 30 0 0 0 0 0 0 0 0 0 0 28 0 0 0 0 0 0 0 0 0 0 0 0 0 0 0 0 0 0 0 0 21 0 0 0 0 0 0 0 0 0 0 0 0 
		69 0 40 0 34 0 0 0 0 0 0 0 0 0 0 35 0 0 30 0 0 0 0 0 0 0 0 0 0 0 0 0 0 0 0 32 0 0 0 0 0 0 0 0 0 0 0 20 0 30 0 0 0 0 0 0 0 0 0 0 0 0 0 0 0 0 20 0 0 0 0 0 0 
		70 0 0 0 0 0 24 0 0 0 0 0 0 0 40 0 0 0 22 0 0 0 0 0 0 0 0 0 0 0 0 0 0 0 0 0 0 0 0 0 0 0 0 33 0 0 0 0 0 39 0 0 0 0 0 0 0 0 0 0 0 0 0 0 0 0 0 0 0 0 0 0 0 
		71 0 0 0 0 0 0 0 39 0 0 0 0 0 0 0 0 0 0 40 0 0 21 32 0 0 0 0 0 0 24 0 0 0 0 0 0 0 0 0 0 26 0 0 0 0 0 0 0 30 0 29 0 28 40 0 0 0 40 0 28 0 21 0 0 0 0 21 40 0 0 0 0 
;
